\ Model Roadef challenge
\ LP format - for model browsing. Use MPS format to capture full model detail.
Minimize
  0 y[1,0] + 0 y[1,1] + 0 risk_s_t[1,0] + 0 risk_s_t[1,1]
   + 0.1666666666666667 risk_bar_t[0] + 0.1666666666666667 risk_bar_t[1]
   + 0.1666666666666667 risk_bar_t[2] + 0.1666666666666667 excess[0]
   + 0.1666666666666667 excess[1] + 0.1666666666666667 excess[2]
Subject To
 R0: z[0,0] + z[0,1] + z[0,2] = 1
 R1: z[1,0] + z[1,1] + z[1,2] = 1
 R2: z[2,0] + z[2,1] + z[2,2] = 1
 R3: - z[0,0] + w[0,0] >= 0
 R4: - z[0,1] + w[0,1] >= 0
 R5: - z[0,2] + w[0,2] >= 0
 R6: - z[1,0] + w[1,0] >= 0
 R7: - z[1,1] + w[1,1] >= 0
 R8: - z[1,2] + w[1,2] >= 0
 R9: - z[2,0] + w[2,0] >= 0
 R10: - z[2,1] + w[2,1] >= 0
 R11: - z[2,2] + w[2,2] >= 0
 R12: 3 z[0,0] <= 3
 R13: 4 z[0,1] <= 3
 R14: 4 z[0,2] <= 3
 R15: z[1,0] <= 3
 R16: 2 z[1,1] <= 3
 R17: 3 z[1,2] <= 3
 R18: z[2,0] <= 3
 R19: 2 z[2,1] <= 3
 R20: 4 z[2,2] <= 3
 R21: z[0,0] <= 1
 R22: 2 z[0,1] <= 1
 R23: 3 z[0,2] <= 1
 R24: z[1,0] <= 3
 R25: 2 z[1,1] <= 3
 R26: 3 z[1,2] <= 3
 R27: z[2,0] <= 2
 R28: 2 z[2,1] <= 2
 R29: 3 z[2,2] <= 2
 R30: w[1,0] + w[2,0] <= 1
 R31: w[1,1] + w[2,1] <= 1
 R32: w[1,2] + w[2,2] <= 1
 R33: - z[0,0] - w[0,0] + beta[0,0,0] >= -1
 R34: - z[0,0] - w[0,1] + beta[0,1,0] >= -1
 R35: - z[0,1] - w[0,1] + beta[0,1,1] >= -1
 R36: - z[0,0] - w[0,2] + beta[0,2,0] >= -1
 R37: - z[0,1] - w[0,2] + beta[0,2,1] >= -1
 R38: - z[0,2] - w[0,2] + beta[0,2,2] >= -1
 R39: - z[1,0] - w[1,0] + beta[1,0,0] >= -1
 R40: - z[1,0] - w[1,1] + beta[1,1,0] >= -1
 R41: - z[1,1] - w[1,1] + beta[1,1,1] >= -1
 R42: - z[1,0] - w[1,2] + beta[1,2,0] >= -1
 R43: - z[1,1] - w[1,2] + beta[1,2,1] >= -1
 R44: - z[1,2] - w[1,2] + beta[1,2,2] >= -1
 R45: - z[2,0] - w[2,0] + beta[2,0,0] >= -1
 R46: - z[2,0] - w[2,1] + beta[2,1,0] >= -1
 R47: - z[2,1] - w[2,1] + beta[2,1,1] >= -1
 R48: - z[2,0] - w[2,2] + beta[2,2,0] >= -1
 R49: - z[2,1] - w[2,2] + beta[2,2,1] >= -1
 R50: - z[2,2] - w[2,2] + beta[2,2,2] >= -1
 R51: 31 beta[0,0,0] + 14 beta[1,0,0] + 5 beta[2,0,0] >= 10
 R52: 14 beta[1,1,1] + 5 beta[2,1,1] >= 0
 R53: 8 beta[0,2,0] + 14 beta[1,2,2] >= 6
 R54: 31 beta[0,0,0] + 14 beta[1,0,0] + 5 beta[2,0,0] <= 49
 R55: 14 beta[1,1,1] + 5 beta[2,1,1] <= 23
 R56: 8 beta[0,2,0] + 14 beta[1,2,2] <= 15
 R57: - 7 beta[0,0,0] - 8 beta[1,0,0] - 2 beta[2,0,0] + risk_s_t[0,0] = 0
 R58: - 4 beta[0,1,0] - 5 beta[1,1,1] - 6 beta[2,1,1] + risk_s_t[0,1] = 0
 R59: - 2 beta[0,2,0] - 6 beta[1,2,2] + risk_s_t[0,2] = 0
 R60: - 20 beta[0,2,0] - 8 beta[1,2,2] + risk_s_t[1,2] = 0
 R61: - risk_s_t[0,0] + risk_bar_t[0] = 0
 R62: - risk_s_t[0,1] + risk_bar_t[1] = 0
 R63: - 0.5 risk_s_t[0,2] - 0.5 risk_s_t[1,2] + risk_bar_t[2] = 0
 R64: y[0,0] >= 0.5
 R65: y[0,1] >= 0.5
 R66: y[0,2] + y[1,2] >= 1
 R67: y[0,0] <= 1.5
 R68: y[0,1] <= 1.5
 R69: y[0,2] + y[1,2] <= 2
 R70: 10 y[0,2] - 10 y[1,2] + risk_s_t[0,2] - risk_s_t[1,2] >= -10
 R71: - 10 y[0,2] + 10 y[1,2] - risk_s_t[0,2] + risk_s_t[1,2] >= -10
 R72: - 10 y[0,0] - risk_s_t[0,0] + q_t[0] >= -10
 R73: - 10 y[0,1] - risk_s_t[0,1] + q_t[1] >= -10
 R74: - 10 y[0,2] - risk_s_t[0,2] + q_t[2] >= -10
 R75: - 10 y[1,2] - risk_s_t[1,2] + q_t[2] >= -10
 R76: excess[0] >= 0
 R77: excess[1] >= 0
 R78: excess[2] >= 0
 R79: risk_bar_t[0] - q_t[0] + excess[0] >= 0
 R80: risk_bar_t[1] - q_t[1] + excess[1] >= 0
 R81: risk_bar_t[2] - q_t[2] + excess[2] >= 0
 R82: - 3 z[0,0] + w[0,0] + w[0,1] + w[0,2] >= 0
 R83: - z[1,0] + w[1,0] + w[1,1] + w[1,2] >= 0
 R84: - z[1,1] + w[1,1] + w[1,2] >= 0
 R85: - z[1,2] + w[1,2] >= 0
 R86: - z[2,0] + w[2,0] + w[2,1] + w[2,2] >= 0
 R87: - z[2,1] + w[2,1] + w[2,2] >= 0
 R88: - 3 z[0,0] + w[0,0] + w[0,1] + w[0,2] = 0
 R89: - z[1,0] - z[1,1] - z[1,2] + w[1,0] + w[1,1] + w[1,2] = 0
 R90: - z[2,0] - z[2,1] + w[2,0] + w[2,1] + w[2,2] = 0
 R91: 3 z[0,0] - w[0,0] - w[0,1] - w[0,2] = 0
 R92: z[1,0] - w[1,0] = 0
 R93: z[1,1] - w[1,1] = 0
 R94: z[1,2] - w[1,2] = 0
 R95: z[2,0] - w[2,0] = 0
 R96: z[2,1] - w[2,1] = 0
Bounds
Binaries
 z[0,0] z[0,1] z[0,2] z[1,0] z[1,1] z[1,2] z[2,0] z[2,1] z[2,2] w[0,0]
 w[0,1] w[0,2] w[1,0] w[1,1] w[1,2] w[2,0] w[2,1] w[2,2] y[0,0] y[0,1]
 y[0,2] y[1,0] y[1,1] y[1,2] beta[0,0,0] beta[0,1,0] beta[0,1,1]
 beta[0,2,0] beta[0,2,1] beta[0,2,2] beta[1,0,0] beta[1,1,0] beta[1,1,1]
 beta[1,2,0] beta[1,2,1] beta[1,2,2] beta[2,0,0] beta[2,1,0] beta[2,1,1]
 beta[2,2,0] beta[2,2,1] beta[2,2,2]
End
